This is Ipopt version 3.14.14, running with linear solver ma57.

Number of nonzeros in equality constraint Jacobian...:   168748
Number of nonzeros in inequality constraint Jacobian.:     6102
Number of nonzeros in Lagrangian Hessian.............:   285506

Reallocating memory for MA57: lfact (4157686)
Total number of variables............................:    31117
                     variables with only lower bounds:     4512
                variables with lower and upper bounds:       33
                     variables with only upper bounds:        0
Total number of equality constraints.................:    31112
Total number of inequality constraints...............:     3033
        inequality constraints with only lower bounds:        0
   inequality constraints with lower and upper bounds:     3015
        inequality constraints with only upper bounds:       18

iter    objective    inf_pr   inf_du lg(mu)  ||d||  lg(rg) alpha_du alpha_pr  ls
   0  1.2026175e+03 1.18e+09 1.03e+02  -1.0 0.00e+00    -  0.00e+00 0.00e+00   0
   1  2.0157453e+03 9.29e+08 4.89e+01  -1.0 1.78e+01    -  6.94e-03 2.25e-01h  1
   2  2.0274292e+03 9.26e+08 2.12e+02  -1.0 1.76e+01    -  4.21e-01 2.87e-03h  1
   3  2.3291376e+03 8.59e+08 6.51e+02  -1.0 2.48e+01    -  1.79e-01 7.41e-02h  1
   4  4.3850843e+03 6.01e+08 1.34e+03  -1.0 5.24e+01    -  1.79e-02 3.27e-01h  1
   5  4.4534354e+03 5.92e+08 1.46e+03  -1.0 8.48e+00  -2.0 5.86e-02 1.53e-02h  1
   6  4.4793008e+03 5.89e+08 1.71e+03  -1.0 6.90e+00  -1.6 4.87e-02 5.20e-03h  1
   7  4.5120052e+03 5.85e+08 1.81e+03  -1.0 2.65e+01    -  1.18e-02 6.21e-03h  1
   8  4.7130045e+03 5.62e+08 1.74e+03  -1.0 6.67e+00  -2.1 5.88e-04 3.94e-02h  1
   9  6.3890297e+03 3.72e+08 2.01e+03  -1.0 6.73e+00    -  1.25e-02 3.74e-01h  1
iter    objective    inf_pr   inf_du lg(mu)  ||d||  lg(rg) alpha_du alpha_pr  ls
  10  6.6862809e+03 3.32e+08 3.21e+03  -1.0 7.65e+00  -0.7 1.50e-02 1.09e-01h  1
  11  6.6908447e+03 3.32e+08 3.15e+03  -1.0 1.02e+01    -  6.99e-03 1.63e-03h  1
  12  7.9630239e+03 2.12e+08 5.03e+03  -1.0 1.81e+01    -  7.93e-03 4.01e-01h  1
  13  8.0555848e+03 2.04e+08 5.35e+03  -1.0 8.25e+00  -0.3 1.49e-02 3.65e-02h  1
  14  8.0577375e+03 2.04e+08 5.41e+03  -1.0 9.42e+00  -0.8 4.77e-02 7.36e-04h  1
  15  8.1727487e+03 1.97e+08 5.11e+03  -1.0 1.29e+01  -0.3 2.13e-02 3.34e-02h  1
  16  8.1961133e+03 1.96e+08 3.62e+05  -1.0 1.29e+01   1.0 1.34e-01 5.52e-03h  1
  17  9.3378421e+03 1.58e+08 1.94e+05  -1.0 1.32e+01   0.5 7.89e-02 2.04e-01h  1
  18  9.7230157e+03 1.46e+08 1.79e+05  -1.0 1.05e+01   0.9 9.53e-02 7.87e-02H  1
  19  9.7247615e+03 1.46e+08 1.18e+05  -1.0 1.45e+01   0.5 7.68e-02 3.31e-04H  1
iter    objective    inf_pr   inf_du lg(mu)  ||d||  lg(rg) alpha_du alpha_pr  ls
  20  9.7336025e+03 1.43e+08 1.25e+05  -1.0 8.74e+00    -  1.33e-03 1.71e-02h  1
  21  9.8048293e+03 1.30e+08 1.65e+05  -1.0 1.54e+01    -  7.66e-04 8.88e-02F  1
  22  1.0040132e+04 1.25e+08 1.47e+05  -1.0 2.42e+01    -  1.58e-02 4.02e-02h  3
  23  1.0129512e+04 1.10e+08 1.80e+05  -1.0 1.12e+01    -  5.99e-01 1.28e-01h  1
  24  1.0327673e+04 1.07e+08 1.60e+05  -1.0 2.32e+01    -  5.13e-02 2.72e-02h  2
  25  1.1151573e+04 8.10e+07 1.05e+05  -1.0 9.41e+00    -  2.23e-01 2.57e-01h  1
  26  1.1160539e+04 8.08e+07 1.01e+05  -1.0 8.60e+00    -  3.01e-01 3.07e-03h  1
  27  1.1162730e+04 8.07e+07 1.05e+05  -1.0 8.28e+00    -  5.66e-01 1.46e-03h  1
  28  1.1163315e+04 8.03e+07 1.04e+05  -1.0 6.56e+00    -  3.34e-03 5.18e-03h  1
  29  1.1174351e+04 7.61e+07 8.78e+04  -1.0 7.66e+00    -  3.55e-05 5.23e-02h  1
iter    objective    inf_pr   inf_du lg(mu)  ||d||  lg(rg) alpha_du alpha_pr  ls
  30  1.1952446e+04 1.90e+07 6.77e+04  -1.0 1.24e+01    -  3.83e-01 1.00e+00h  1
  31  1.1888697e+04 1.67e+07 4.19e+04  -1.0 4.13e+00   0.9 2.33e-01 1.26e-01f  1
  32  1.1858491e+04 1.62e+07 3.84e+04  -1.0 1.88e+01    -  6.53e-02 2.83e-02f  4
  33  1.1861090e+04 1.62e+07 3.75e+04  -1.0 7.21e+01    -  8.09e-02 1.66e-03h  6
  34  1.1671169e+04 9.95e+06 1.23e+05  -1.0 3.40e+00   0.4 7.93e-01 4.33e-01f  1
  35  1.1776311e+04 1.40e+06 3.33e+04  -1.0 2.75e+00    -  9.11e-01 1.00e+00H  1
  36  1.1865113e+04 3.50e+05 1.98e+04  -1.0 2.89e+00  -0.1 7.92e-01 1.00e+00h  1
  37  1.1750548e+04 8.75e+04 1.34e+03  -1.0 1.23e+00  -0.6 1.00e+00 1.00e+00f  1
  38  1.1666811e+04 2.19e+04 1.11e+03  -1.0 1.46e+00    -  5.08e-01 1.00e+00f  1
  39  1.1464433e+04 5.47e+03 3.55e+02  -1.0 1.64e+00  -1.0 5.73e-02 1.00e+00f  1
iter    objective    inf_pr   inf_du lg(mu)  ||d||  lg(rg) alpha_du alpha_pr  ls
  40  1.1019368e+04 3.63e+03 1.96e+02  -1.0 8.31e+00    -  2.87e-01 3.69e-01f  1
  41  1.1008721e+04 3.56e+03 5.85e+02  -1.0 3.25e+00    -  1.00e+00 1.98e-02f  1
  42  1.0702672e+04 1.25e+03 1.16e+02  -1.0 2.88e+00    -  1.00e+00 8.17e-01f  1
  43  1.0774562e+04 3.11e+02 7.00e+01  -1.0 2.92e+00    -  1.00e+00 1.00e+00h  1
  44  1.0754783e+04 7.78e+01 1.22e+02  -1.0 2.92e+00    -  1.00e+00 1.00e+00h  1
  45  1.0751289e+04 1.95e+01 2.25e+02  -1.0 2.76e+00    -  1.00e+00 1.00e+00h  1
  46  1.0751095e+04 4.87e+00 4.30e+02  -1.0 2.55e+00    -  1.00e+00 1.00e+00h  1
  47  1.0751058e+04 2.14e+00 8.40e+02  -1.0 2.34e+00    -  1.00e+00 1.00e+00h  1
  48  1.0750917e+04 1.94e+00 1.66e+03  -1.0 2.14e+00    -  1.00e+00 1.00e+00h  1
  49  1.0750739e+04 1.74e+00 3.29e+03  -1.0 1.94e+00    -  1.00e+00 1.00e+00h  1
iter    objective    inf_pr   inf_du lg(mu)  ||d||  lg(rg) alpha_du alpha_pr  ls
  50  1.0750591e+04 1.55e+00 6.56e+03  -1.0 1.74e+00    -  1.00e+00 1.00e+00h  1
  51  1.0750440e+04 1.37e+00 1.31e+04  -1.0 1.55e+00    -  1.00e+00 1.00e+00h  1
  52  1.0750297e+04 1.21e+00 2.60e+04  -1.0 1.37e+00    -  1.00e+00 1.00e+00h  1
  53  1.0750166e+04 1.05e+00 5.16e+04  -1.0 1.21e+00    -  1.00e+00 1.00e+00h  1
  54  1.0750049e+04 9.06e-01 1.01e+05  -1.0 1.05e+00    -  1.00e+00 1.00e+00h  1
Reallocating memory for MA57: lfact (4424832)
  55  1.0749947e+04 7.76e-01 1.96e+05  -1.0 9.07e-01    -  1.00e+00 1.00e+00h  1
  56  1.0749860e+04 6.58e-01 3.68e+05  -1.0 7.76e-01    -  1.00e+00 1.00e+00h  1
  57  1.0739709e+04 3.53e-01 2.49e+05  -1.7 7.46e-01    -  4.10e-01 4.64e-01f  1
  58  1.0695641e+04 4.69e-01 3.07e+05  -1.7 2.61e+00    -  1.52e-01 1.00e+00f  1
  59  1.0697226e+04 2.92e-01 2.07e+05  -1.7 9.57e-01    -  9.86e-01 7.74e-01h  1
iter    objective    inf_pr   inf_du lg(mu)  ||d||  lg(rg) alpha_du alpha_pr  ls
  60  1.0696870e+04 3.24e-01 8.02e-01  -1.7 6.12e-01    -  1.00e+00 1.00e+00h  1
  61  1.0696571e+04 2.56e-01 9.84e-03  -1.7 3.24e-01    -  1.00e+00 1.00e+00h  1
  62  1.0696512e+04 1.99e-01 9.55e-03  -1.7 2.56e-01    -  1.00e+00 1.00e+00h  1
  63  1.0689771e+04 1.09e-01 4.92e+03  -2.5 1.96e+00    -  7.73e-01 7.58e-01f  1
  64  1.0689937e+04 1.22e-01 9.33e-01  -2.5 6.45e-01    -  1.00e+00 1.00e+00h  1
  65  1.0689862e+04 9.08e-02 3.67e-02  -2.5 1.22e-01    -  1.00e+00 1.00e+00h  1
  66  1.0689879e+04 6.60e-02 1.11e-02  -2.5 9.08e-02    -  1.00e+00 1.00e+00h  1
  67  1.0689884e+04 3.92e-02 2.27e-03  -2.5 6.60e-02    -  1.00e+00 1.00e+00h  1
  68  1.0689893e+04 1.01e-02 8.12e-03  -2.5 4.21e-02    -  1.00e+00 1.00e+00h  1
  69  1.0689673e+04 1.09e-02 1.89e+03  -3.8 3.71e-01    -  1.00e+00 9.83e-01h  1
iter    objective    inf_pr   inf_du lg(mu)  ||d||  lg(rg) alpha_du alpha_pr  ls
  70  1.0689675e+04 3.56e-03 4.13e-03  -3.8 2.02e-02    -  1.00e+00 1.00e+00h  1
  71  1.0689667e+04 5.01e-04 1.54e-04  -3.8 5.71e-03    -  1.00e+00 1.00e+00h  1
  72  1.0689665e+04 5.33e-05 1.45e-03  -5.7 2.33e-02    -  1.00e+00 1.00e+00h  1
  73  1.0689663e+04 8.54e-08 1.32e-07  -5.7 1.54e-04    -  1.00e+00 1.00e+00h  1
  74  1.0689663e+04 3.50e-08 3.76e-06  -8.6 2.87e-04    -  1.00e+00 1.00e+00h  1
  75  1.0689663e+04 3.50e-08 1.71e-05 -10.0 1.50e-05    -  1.00e+00 1.00e+00h  1

Number of Iterations....: 75

                                   (scaled)                 (unscaled)
Objective...............:   1.4846753834363117e+03    1.0689662760741443e+04
Dual infeasibility......:   1.7077016534944311e-05    1.2295451905159903e-04
Constraint violation....:   7.0522193797876067e-12    3.5031403847520862e-08
Variable bound violation:   1.0999509747477987e-08    1.0999509747477987e-08
Complementarity.........:   9.0910338976860380e-11    6.5455444063339474e-10
Overall NLP error.......:   9.0910338976860380e-11    1.2295451905159903e-04


Number of objective function evaluations             = 97
Number of objective gradient evaluations             = 76
Number of equality constraint evaluations            = 97
Number of inequality constraint evaluations          = 97
Number of equality constraint Jacobian evaluations   = 76
Number of inequality constraint Jacobian evaluations = 76
Number of Lagrangian Hessian evaluations             = 75
Total seconds in IPOPT                               = 18.905

EXIT: Optimal Solution Found.
